p cnf 15 22
-15 -13 -3 0
15 10 7 0
15 -9 4 0
15 -7 -6 0
15 5 -2 0
-15 -3 -2 0
14 12 3 0
14 -12 -3 0
14 -11 -1 0
14 10 -3 0
14 -9 4 0
-14 -6 -4 0
-13 11 6 0
-13 -10 -9 0
-13 -8 -4 0
13 -7 1 0
-12 11 -7 0
12 -4 3 0
11 -10 2 0
11 -9 -3 0
-9 -7 3 0
-8 -7 3 0
